/*********************************************
 * OPL 12.7.1.0 Data
 * Author: pique
 * Creation Date: 24/10/2017 at 11.39.24
 *********************************************/
minHours=1;
maxHours=16;
maxConsec=11;
maxPresence=17;
demand=[0 0 3 4 5 5 8 7 8 5 8 8 6 0 0 0 8 7 0 0 0 0 0 0];
nNurses=10;